data/CVRPLIB/Vrp-Set-XML100/instances/XML100_1311_09.vrp
NAME : XML100_1311_09
COMMENT : Generated by Queiroga, Sadykov, Uchoa, and Vidal (2021)
TYPE : CVRP
DIMENSION : 101
EDGE_WEIGHT_TYPE : EUC_2D
CAPACITY : 4
NODE_COORD_SECTION
1    417  92  
2    763  603 
3    353  398 
4    821  868 
5    686  718 
6    853  767 
7    893  878 
8    450  4   
9    868  851 
10   734  464 
11   460  989 
12   87   326 
13   172  131 
14   859  823 
15   382  65  
16   874  785 
17   587  72  
18   730  19  
19   773  248 
20   583  19  
21   826  971 
22   644  771 
23   1    670 
24   805  745 
25   129  364 
26   141  326 
27   933  762 
28   285  653 
29   544  9   
30   402  835 
31   502  44  
32   834  106 
33   694  27  
34   745  747 
35   933  736 
36   273  880 
37   704  93  
38   555  45  
39   45   47  
40   205  549 
41   651  33  
42   176  378 
43   906  730 
44   307  319 
45   980  767 
46   737  187 
47   109  176 
48   31   99  
49   693  645 
50   614  285 
51   344  474 
52   318  317 
53   682  148 
54   200  476 
55   663  102 
56   554  2   
57   272  456 
58   754  218 
59   186  452 
60   794  83  
61   631  81  
62   893  873 
63   143  351 
64   510  267 
65   856  856 
66   893  835 
67   94   530 
68   519  680 
69   92   971 
70   377  799 
71   161  432 
72   387  991 
73   894  945 
74   73   145 
75   568  982 
76   632  128 
77   698  812 
78   493  621 
79   543  26  
80   536  227 
81   184  12  
82   748  924 
83   958  600 
84   440  167 
85   723  912 
86   613  189 
87   140  405 
88   928  630 
89   841  769 
90   901  710 
91   662  785 
92   228  174 
93   539  13  
94   714  783 
95   847  776 
96   147  419 
97   154  89  
98   632  370 
99   775  856 
100  459  195 
101  6    418 
DEMAND_SECTION
1    0   
2    1   
3    1   
4    1   
5    1   
6    1   
7    1   
8    1   
9    1   
10   1   
11   1   
12   1   
13   1   
14   1   
15   1   
16   1   
17   1   
18   1   
19   1   
20   1   
21   1   
22   1   
23   1   
24   1   
25   1   
26   1   
27   1   
28   1   
29   1   
30   1   
31   1   
32   1   
33   1   
34   1   
35   1   
36   1   
37   1   
38   1   
39   1   
40   1   
41   1   
42   1   
43   1   
44   1   
45   1   
46   1   
47   1   
48   1   
49   1   
50   1   
51   1   
52   1   
53   1   
54   1   
55   1   
56   1   
57   1   
58   1   
59   1   
60   1   
61   1   
62   1   
63   1   
64   1   
65   1   
66   1   
67   1   
68   1   
69   1   
70   1   
71   1   
72   1   
73   1   
74   1   
75   1   
76   1   
77   1   
78   1   
79   1   
80   1   
81   1   
82   1   
83   1   
84   1   
85   1   
86   1   
87   1   
88   1   
89   1   
90   1   
91   1   
92   1   
93   1   
94   1   
95   1   
96   1   
97   1   
98   1   
99   1   
100  1   
101  1   
DEPOT_SECTION
1
-1
EOF
