data/CVRPLIB/Vrp-Set-XML100/solutions/XML100_1311_09.sol
Route #1: 83 99 63 79
Route #2: 89 42 87 82
Route #3: 69 35 68 22
Route #4: 29 71 10 74
Route #5: 53 66 100 11
Route #6: 80 96 12 91
Route #7: 58 70 95 86
Route #8: 4 21 67 77
Route #9: 37 19 55 28
Route #10: 30 78 92 7
Route #11: 72 20 81 84
Route #12: 5 94 88 23
Route #13: 17 59 31 36
Route #14: 75 54 52 85
Route #15: 16 60 32 40
Route #16: 48 1 9 97
Route #17: 8 6 61 65
Route #18: 90 76 93 33
Route #19: 38 47 73 46
Route #20: 49 18 57 45
Route #21: 41 24 62 25
Route #22: 98 3 64 13
Route #23: 15 26 44 34
Route #24: 50 27 39 56
Route #25: 2 43 51 14
Cost 29802
